p cnf 27 33
-1 -2 22 0 
-3 23 0 
-4 18 22 0 
-2 22 0 
-5 9 22 0 
-3 22 0 
-6 23 0 
-7 10 14 22 0 
-1 22 0 
-8 11 -9 5 24 -20 0 
-10 7 14 -8 11 25 0 
-11 8 22 0 
-12 16 23 0 
-13 22 0 
-14 7 10 26 0 
-15 22 0 
-10 7 14 -16 12 25 0 
-17 27 0 
-17 -16 12 25 0 
-10 7 14 27 0 
-10 7 14 -8 11 24 -20 0 
-11 8 24 -20 0 
-18 4 -16 12 24 -20 0 
-18 4 -16 12 25 0 
-17 -19 27 0 
-18 4 27 0 
-20 27 0 
-16 12 -10 7 14 25 0 
-21 -9 5 27 0 
-17 -11 8 24 -20 0 
-9 5 -16 12 25 0 
-21 -12 16 24 -20 0 
-16 12 -10 7 14 24 -20 0 
